solving instance mcf nodes c53 3 6 log
presolving:
(round 1, fast)       550 del vars, 550 del conss, 0 add conss, 30 chg bounds, 0 chg sides, 0 chg coeffs, 0 upgd conss, 0 impls, 0 clqs
(round 2, fast)       1070 del vars, 550 del conss, 0 add conss, 30 chg bounds, 0 chg sides, 0 chg coeffs, 0 upgd conss, 0 impls, 0 clqs
(round 3, fast)       1070 del vars, 550 del conss, 0 add conss, 30 chg bounds, 520 chg sides, 0 chg coeffs, 0 upgd conss, 0 impls, 0 clqs
   (3.4s) symmetry computation started: requiring (bin +, int +, cont +), (fixed: bin -, int -, cont -)
   (4.1s) no symmetry present (symcode time: 0.18)
presolving (4 rounds: 4 fast, 1 medium, 1 exhaustive):
 1070 deleted vars, 550 deleted constraints, 0 added constraints, 30 tightened bounds, 0 added holes, 520 changed sides, 0 changed coefficients
 0 implications, 0 cliques
presolved problem has 208060 variables (0 bin, 0 int, 0 impl, 208060 cont) and 12580 constraints
  12550 constraints of type <linear>
     30 constraints of type <nonlinear>
Presolving Time: 3.49

 time | node  | left  |LP iter|LP it/n|mem/heur|mdpt |vars |cons |rows |cuts |sepa|confs|strbr|  dualbound   | primalbound  |  gap   | compl. 
 1050s|     1 |     0 |197371 |     - |   864M |   0 | 208k|  12k|  12k|   0 |  0 |   0 |   0 | 5.828188e+03 |      --      |    Inf | unknown
L2369s|     1 |     0 |197371 |     - |  subnlp|   0 | 208k|  12k|  12k|   0 |  0 |   0 |   0 | 5.828188e+03 | 1.321194e+04 | 126.69%| unknown
t2369s|     1 |     0 |197371 |     - |  trysol|   0 | 208k|  12k|  12k|   0 |  0 |   0 |   0 | 5.828188e+03 | 1.101175e+04 |  88.94%| unknown
 2369s|     1 |     0 |197371 |     - |   876M |   0 | 208k|  12k|  12k|   0 |  1 |   0 |   0 | 5.828188e+03 | 1.101175e+04 |  88.94%| unknown
 2380s|     1 |     2 |197371 |     - |   888M |   0 | 208k|  12k|  12k|   0 |  2 |   0 |   0 | 5.828188e+03 | 1.101175e+04 |  88.94%| unknown
 2534s|   100 |   101 |250111 | 532.7 |   908M |  13 | 208k|  12k|  12k|  99 |  2 |   0 |   0 | 6.335773e+03 | 1.101175e+04 |  73.80%| unknown
 2698s|   200 |   201 |306958 | 550.7 |   913M |  13 | 208k|  12k|  12k| 199 |  2 |   0 |   0 | 6.445125e+03 | 1.101175e+04 |  70.85%| unknown
 2901s|   300 |   301 |375888 | 597.0 |   916M |  13 | 208k|  12k|  12k| 299 |  2 |   0 |   0 | 6.509438e+03 | 1.101175e+04 |  69.17%| unknown
 3121s|   400 |   401 |452866 | 640.3 |   921M |  13 | 208k|  12k|  12k| 399 |  2 |   0 |   0 | 6.579731e+03 | 1.101175e+04 |  67.36%| unknown
 3321s|   500 |   501 |521219 | 649.0 |   925M |  14 | 208k|  12k|  12k| 499 |  2 |   0 |   0 | 6.610154e+03 | 1.101175e+04 |  66.59%| unknown
 3544s|   600 |   601 |597188 | 667.5 |   928M |  14 | 208k|  12k|  12k| 599 |  2 |   0 |   0 | 6.677427e+03 | 1.101175e+04 |  64.91%| unknown

SCIP Status        : solving was interrupted [time limit reached]
Solving Time (sec) : 3600.01
Solving Nodes      : 642
Primal Bound       : +1.10117472457102e+04 (2 solutions)
Dual Bound         : +6.67837313553181e+03
Gap                : 64.89 %
primal_bound = 11011.747245710196, dual_bound = 6678.3731355318105, gap = 39.352284551087216, time = 3607.9
